17	4	3
25	22	23	21	49	27	31	
0	0	0	0	0	9	1	7	8	2	3	3	2	3	4
2	3	9	6	8	2	5	2	4	2	7	3	7	11	16
10	8	2	8	2	9	9	9	9	4	8	3	5	10	12
5	8	6	4	3	6	8	7	8	9	9	2	8	17
4	4	8	1	9	4	6	8	9	4	2	2	6	15
75	7	2	8	2	9	2	2	6	9	3	1	17
175	4	7	4	4	8	1	7	10	5	8	2	9	17
25	9	3	3	3	6	4	7	5	2	10	2	14	17
50	7	1	8	1	2	7	8	8	4	6	2	13	17
150	1	5	5	10	7	8	2	4	7	6	1	17
25	1	8	3	6	6	5	8	8	10	7	2	17	17
250	5	3	7	5	10	8	7	7	8	1	1	17
6	5	4	10	5	5	4	4	2	8	6	1	17
4	10	5	8	2	1	10	2	8	7	6	1	17
8	9	10	3	10	4	4	4	6	8	10	1	17
8	5	10	3	7	1	3	5	9	10	5	1	17
0	0	0	0	0	5	10	2	1	7	10	0
